100
134
158
29
117
123
88
97
141
140
156
189
131
181
101
65
158
6
59
174
160
105
9
134
164
142
140
166
156
83
122
108
178
155
191
118
145
137
169
136
168
142
186
84
6
116
110
188
180
156
114
178
75
189
107
156
36
95
182
153
162
1
173
164
177
181
106
65
127
140
108
155
121
8
139
177
145
97
192
125
54
44
177
114
134
0
106
120
117
174
163
140
71
109
158
122
102
6
129
6
8
END